instancias/entrada09.lp
Maximize
 348x1 + 830x2 + 231x3 + 957x4 + 329x5 + 699x6 + 616x7 + 502x8 + 100x9 + 845x10 + 929x11 + 827x12 + 274x13 + 352x14 + 188x15 + 839x16 + 340x17 + 996x18 + 839x19 + 529x20 + 56x21 + 483x22 + 491x23 + 875x24 + 255x25 + 73x26 + 663x27 + 186x28 + 415x29 + 551x30 + 749x31 + 287x32 + 608x33 + 160x34 + 154x35 + 512x36 + 449x37 + 705x38 + 130x39 + 462x40
Subject To
 723x1 + 896x2 + 935x3 + 130x4 + 503x5 + 606x6 + 136x7 + 83x8 + 218x9 + 682x10 + 955x11 + 946x12 + 959x13 + 631x14 + 231x15 + 231x16 + 702x17 + 459x18 + 712x19 + 805x20 + 344x21 + 346x22 + 578x23 + 551x24 + 509x25 + 686x26 + 392x27 + 862x28 + 974x29 + 5x30 + 518x31 + 723x32 + 484x33 + 499x34 + 854x35 + 375x36 + 990x37 + 273x38 + 319x39 + 666x40 <= 996
Bounds
 0 <= x1 <= 1
 0 <= x2 <= 1
 0 <= x3 <= 1
 0 <= x4 <= 1
 0 <= x5 <= 1
 0 <= x6 <= 1
 0 <= x7 <= 1
 0 <= x8 <= 1
 0 <= x9 <= 1
 0 <= x10 <= 1
 0 <= x11 <= 1
 0 <= x12 <= 1
 0 <= x13 <= 1
 0 <= x14 <= 1
 0 <= x15 <= 1
 0 <= x16 <= 1
 0 <= x17 <= 1
 0 <= x18 <= 1
 0 <= x19 <= 1
 0 <= x20 <= 1
 0 <= x21 <= 1
 0 <= x22 <= 1
 0 <= x23 <= 1
 0 <= x24 <= 1
 0 <= x25 <= 1
 0 <= x26 <= 1
 0 <= x27 <= 1
 0 <= x28 <= 1
 0 <= x29 <= 1
 0 <= x30 <= 1
 0 <= x31 <= 1
 0 <= x32 <= 1
 0 <= x33 <= 1
 0 <= x34 <= 1
 0 <= x35 <= 1
 0 <= x36 <= 1
 0 <= x37 <= 1
 0 <= x38 <= 1
 0 <= x39 <= 1
 0 <= x40 <= 1
General
 x1 x2 x3 x4 x5 x6 x7 x8 x9 x10 x11 x12 x13 x14 x15 x16 x17 x18 x19 x20 x21 x22 x23 x24 x25 x26 x27 x28 x29 x30 x31 x32 x33 x34 x35 x36 x37 x38 x39 x40
End