instancias/entrada09.txt
40
996
348 830 231 957 329 699 616 502 100 845 929 827 274 352 188 839 340 996 839 529 56 483 491 875 255 73 663 186 415 551 749 287 608 160 154 512 449 705 130 462
723 896 935 130 503 606 136 83 218 682 955 946 959 631 231 231 702 459 712 805 344 346 578 551 509 686 392 862 974 5 518 723 484 499 854 375 990 273 319 666